10  5
 1  3  4  8  2  8  3  3  0  8   0 149   5
 1  6  0  6  2 11  4 10  3  4   0 149  10
 4  6  1  6  2 14  3  8  0  5   0 149   5
 1  5  0  9  2 12  3  8  4  3   0 149   5
 1  4  3  7  2  9  4  6  0  8   0 149   5
 4  3  1  6  2 15  3  9  0  6   0 149  10
 0  8  4  3  2 11  1  8  3  3   0 149   5
 3  9  0 10  2 12  4  8  1  9   0 149   5
 3 10  0  8  2  8  4  5  1  6   0 149   5
 3  9  4  8  2 16  1 11  0 11   0 149   5
